
Gurobi 10.0.2 (linux64) logging started Sat 20 Jul 2024 04:12:22 PM -05

Set parameter LogFile to value "gurobi.log"
Gurobi Optimizer version 10.0.2 build v10.0.2rc0 (linux64)

CPU model: Intel(R) Core(TM) i5-1035G1 CPU @ 1.00GHz, instruction set [SSE2|AVX|AVX2|AVX512]
Thread count: 4 physical cores, 8 logical processors, using up to 8 threads

Academic license 2446675 - for non-commercial use only - registered to mi___@epn.edu.ec
Optimize a model with 2991 rows, 2243 columns and 15711 nonzeros
Model fingerprint: 0x3d91beb4
Variable types: 0 continuous, 2243 integer (0 binary)
Coefficient statistics:
  Matrix range     [1e+00, 8e+01]
  Objective range  [1e-01, 2e+01]
  Bounds range     [1e+01, 1e+04]
  RHS range        [1e+00, 1e+04]
Presolve removed 2509 rows and 1395 columns
Presolve time: 0.02s
Presolved: 482 rows, 848 columns, 4229 nonzeros
Variable types: 0 continuous, 848 integer (0 binary)

Root relaxation: objective 3.018252e+04, 120 iterations, 0.00 seconds (0.00 work units)

    Nodes    |    Current Node    |     Objective Bounds      |     Work
 Expl Unexpl |  Obj  Depth IntInf | Incumbent    BestBd   Gap | It/Node Time

     0     0 30182.5162    0    9          - 30182.5162      -     -    0s
H    0     0                    30169.147149 30182.5162  0.04%     -    0s
H    0     0                    30181.345599 30182.5162  0.00%     -    0s

Explored 1 nodes (120 simplex iterations) in 0.05 seconds (0.02 work units)
Thread count was 8 (of 8 available processors)

Solution count 2: 30181.3 30169.1 

Optimal solution found (tolerance 1.00e-04)
Best objective 3.018134559900e+04, best bound 3.018251617637e+04, gap 0.0039%
